job_count = 10 ;
duration = [|7, 12, 7|19, 21, 3|27, 12, 16|9, 24, 9|10, 22, 14|15, 23, 10|2, 3, 14|16, 18, 17|29, 13, 10|4, 12, 15|] ;
machine_count = 3 ;
cost = [|38, 31, 43|23, 49, 41|33, 20, 32|19, 24, 45|36, 29, 49|10, 48, 34|28, 23, 51|38, 24, 57|16, 49, 41|15, 27, 33|] ;
deadline = [28, 16, 15, 14, 20, 23, 29, 8, 12, 30] ;
release = [0, 0, 0, 0, 0, 0, 0, 0, 0, 0] ;
resource = [|2, 2, 2|4, 4, 4|4, 4, 4|4, 4, 4|1, 1, 1|9, 9, 9|7, 7, 7|1, 1, 1|8, 8, 8|9, 9, 9|] ;
capacities = [10, 10, 10] ;
